NAME: n100q15B.tsp, 100 nodes, semilla 111
COMMENT: Problema aleatorio de norma euclidea
DIMENSION: 100
CAPACITY: 15
EDGE_WEIGHT_TYPE: EUC_2D
NODE_COORD_SECTION
1   0.0000   0.0000
2 -355.0000 -98.0000
3 -243.0000 -186.0000
4 181.0000 394.0000
5 -229.0000 -332.0000
6  37.0000 -270.0000
7 -277.0000 -295.0000
8 416.0000 459.0000
9 -362.0000 -232.0000
10 -398.0000 355.0000
11 -21.0000  99.0000
12  72.0000 -354.0000
13 -405.0000 -366.0000
14 -67.0000 489.0000
15 302.0000 -433.0000
16 -239.0000 333.0000
17 -259.0000 372.0000
18  92.0000 -410.0000
19 -200.0000 367.0000
20 405.0000 -75.0000
21 329.0000 -292.0000
22 132.0000 -486.0000
23 -264.0000 355.0000
24 422.0000 -330.0000
25 -120.0000 212.0000
26 474.0000 176.0000
27 161.0000 -24.0000
28   7.0000 334.0000
29 391.0000 -318.0000
30 321.0000 -145.0000
31 164.0000 -482.0000
32 -420.0000 279.0000
33 178.0000 -207.0000
34 -232.0000  50.0000
35  68.0000 -166.0000
36 -122.0000 -284.0000
37 -267.0000 -242.0000
38 169.0000 -23.0000
39 264.0000 250.0000
40 440.0000 -480.0000
41 -471.0000 -147.0000
42 371.0000 -387.0000
43 140.0000 251.0000
44 356.0000 439.0000
45 310.0000 -38.0000
46 345.0000 -145.0000
47 -200.0000 -186.0000
48 -57.0000 -437.0000
49 -461.0000  -8.0000
50 -463.0000  58.0000
51  24.0000 -489.0000
52 145.0000 497.0000
53 495.0000 149.0000
54 461.0000  77.0000
55 -197.0000 -123.0000
56 -58.0000  17.0000
57 307.0000 235.0000
58 -219.0000 234.0000
59 100.0000  29.0000
60 -289.0000 -95.0000
61 -66.0000 -272.0000
62 -213.0000 394.0000
63 276.0000 -401.0000
64 217.0000 -205.0000
65 -464.0000 -105.0000
66 438.0000 -258.0000
67 -266.0000 310.0000
68 -227.0000 -270.0000
69 -425.0000 -402.0000
70 496.0000 127.0000
71 -319.0000 500.0000
72 -345.0000 -327.0000
73 -387.0000 -98.0000
74 295.0000 263.0000
75 -478.0000 -43.0000
76 -153.0000 -284.0000
77  64.0000 -297.0000
78  72.0000 -42.0000
79 415.0000 -441.0000
80 259.0000 -147.0000
81  25.0000 129.0000
82 383.0000 118.0000
83 165.0000 384.0000
84 355.0000 -384.0000
85 381.0000 -173.0000
86 -136.0000 327.0000
87 290.0000   0.0000
88 -437.0000 432.0000
89 -169.0000  23.0000
90 146.0000 -28.0000
91 252.0000 227.0000
92 405.0000 288.0000
93 252.0000 -236.0000
94 263.0000 -309.0000
95 -55.0000 -304.0000
96 -52.0000 -414.0000
97 -386.0000 171.0000
98 -307.0000 -447.0000
99 -492.0000 -35.0000
100 -262.0000 323.0000
DISPLAY_DATA_SECTION:
 1  250  250
 2   72  201
 3  128  157
 4  340  447
 5  135   84
 6  268  115
 7  111  102
 8  458  479
 9   69  134
10   51  427
11  239  299
12  286   73
13   47   67
14  216  494
15  401   33
16  130  416
17  120  436
18  296   45
19  150  433
20  452  212
21  414  104
22  316    7
23  118  427
24  461   85
25  190  356
26  487  338
27  330  238
28  253  417
29  445   91
30  410  177
31  332    9
32   40  389
33  339  146
34  134  275
35  284  167
36  189  108
37  116  129
38  334  238
39  382  375
40  470   10
41   14  176
42  435   56
43  320  375
44  428  469
45  405  231
46  422  177
47  150  157
48  221   31
49   19  246
50   18  279
51  262    5
52  322  498
53  497  324
54  480  288
55  151  188
56  221  258
57  403  367
58  140  367
59  300  264
60  105  202
61  217  114
62  143  447
63  388   49
64  358  147
65   18  197
66  469  121
67  117  405
68  136  115
69   37   49
70  498  313
71   90  500
72   77   86
73   56  201
74  397  381
75   11  228
76  173  108
77  282  101
78  286  229
79  457   29
80  379  176
81  262  314
82  441  309
83  332  442
84  427   58
85  440  163
86  182  413
87  395  250
88   31  466
89  165  261
90  323  236
91  376  363
92  452  394
93  376  132
94  381   95
95  222   98
96  224   43
97   57  335
98   96   26
99    4  232
100  119  411
DEMAND_SECTION
1 -5
2 -9
3 9
4 9
5 -8
6 -4
7 -1
8 -4
9 -2
10 -6
11 8
12 0
13 6
14 3
15 -7
16 -8
17 8
18 3
19 4
20 -4
21 -10
22 5
23 -7
24 3
25 5
26 6
27 0
28 0
29 3
30 6
31 -3
32 3
33 5
34 -2
35 0
36 -3
37 4
38 10
39 10
40 -6
41 1
42 7
43 -7
44 -4
45 5
46 7
47 -2
48 -4
49 -7
50 -6
51 -9
52 1
53 2
54 4
55 2
56 0
57 -8
58 4
59 -8
60 -5
61 0
62 -10
63 1
64 4
65 6
66 8
67 -3
68 -7
69 4
70 -9
71 -6
72 -2
73 -9
74 -2
75 -3
76 -4
77 -5
78 -6
79 -2
80 5
81 1
82 -6
83 9
84 0
85 7
86 0
87 5
88 -5
89 2
90 5
91 -1
92 7
93 4
94 4
95 -6
96 -8
97 4
98 8
99 7
100 9
EOF